(set-logic QF_S)
(set-option :parse-transducers true)
(set-option :produce-models true)
(define-fun-rec toLower ((x String) (y String)) Bool
   (or (and (= x "") (= y ""))
       (and (not (= x "")) (not (= y ""))
           (= (char.code (str.head y))
               (ite (and (<= 65 (char.code (str.head x)))
                       (<= (char.code (str.head x)) 90))
                   (+ (char.code (str.head x)) 32)
                   (char.code (str.head x))))
           (toLower (str.tail x) (str.tail y))))
)
(declare-fun sym1019 () String)
(declare-fun sym1668 () String)
(declare-fun sym1877 () String)
(declare-fun sym551 () String)
(declare-fun sym2090 () String)
(declare-fun sym1455 () String)
(declare-fun sym1232 () String)
(declare-fun sym811 () String)
(declare-fun sym2187 () String)
(declare-fun sym209 () String)
(declare-fun sym161 () String)
(declare-fun L13  () String)
(declare-fun L10  () String)
(declare-fun L21  () String)
(declare-fun L6  () String)
(declare-fun L3  () String)
(declare-fun L4  () String)
(declare-fun L1  () String)
(declare-fun L2  () String)
(declare-fun L0  () String)
(declare-fun L17  () String)
(assert (toLower (str.substr sym1455  0 1) L17 ))
(assert (toLower (str.substr sym209  0 1) L0 ))
(assert (toLower (str.substr sym551  0 1) L2 ))
(assert (toLower (str.substr sym1019  0 1) L1 ))
(assert (toLower (str.substr sym1668  0 1) L4 ))
(assert (toLower (str.substr sym2090  0 1) L3 ))
(assert (toLower (str.substr sym2187  0 1) L6 ))
(assert (toLower (str.substr sym1877  0 1) L21 ))
(assert (toLower (str.substr sym811  0 1) L10 ))
(assert (toLower (str.substr sym1232  0 1) L13 ))

(assert (= L0 "y" ))
(assert (not (= "" "y" )))
(assert (not (= L1 "q" )))
(assert (= L2 "k" ))
(assert (= L3 "g" ))
(assert (not (= "" sym1455 )))
(assert (not (= "" sym1019 )))
(assert (not (= "" sym1232 )))
(assert (not (= "" sym2187 )))
(assert (not (= L4 "p" )))
(assert (not (= "" sym1668 )))
(assert (not (= "" "q" )))
(assert (= "" sym161 ))
(assert (not (= L3 "k" )))
(assert (not (= L6 "y" )))
(assert (not (= "" L6 )))
(assert (not (= L4 "q" )))
(assert (not (= L2 "p" )))
(assert (not (= L10 "k" )))
(assert (not (= L10 "p" )))
(assert (not (= L10 "q" )))
(assert (not (= "" sym209 )))
(assert (not (= L13 "q" )))
(assert (= "" "" ))
(assert (not (= "" sym551 )))
(assert (= L10 "g" ))
(assert (not (= L13 "k" )))
(assert (= "y" "y" ))
(assert (not (= L2 "q" )))
(assert (not (= L17 "p" )))
(assert (not (= L17 "q" )))
(assert (not (= "" "y" )))
(assert (not (= L4 "k" )))
(assert (= L17 "k" ))
(assert (= L21 "k" ))
(assert (= L13 "g" ))
(assert (not (= "" sym811 )))
(assert (not (= "" sym2090 )))
(assert (not (= L13 "p" )))
(assert (not (= L3 "q" )))
(assert (= L1 "k" ))
(assert (not (= L21 "p" )))
(assert (not (= L3 "p" )))
(assert (not (= "" L0 )))
(assert (not (= "" sym1877 )))
(assert (not (= "n" "y" )))
(assert (not (= "y" "n" )))
(assert (not (= "" "n" )))
(assert (not (= L1 "p" )))
(assert (= L4 "g" ))
(assert (not (= L21 "q" )))
(check-sat)
(get-model)
(exit)
